(set-info :smt-lib-version 2.6)
(set-logic QF_S)
(set-info :source |
Generated by: Shaoke Cui
Generated on: 2025-04-10
Application: Using String Solvers to solve string matching problems
Target solver: Z3, Z3alpha, Z3-noodler
Benchmarks for string matching problem with wildcards, which needs to determine whether two strings containing two wildcards can match.
Use re.allchar and (re.* re.allchar) to represent wildcards.
Determine whether the two strings match by judging whether the result of re.inter is re.none.
|)
(set-info :license "https://creativecommons.org/licenses/by/4.0/")
(set-info :category "crafted")
(set-info :status unknown)
(assert (= re.none (re.inter  (re.++ (str.to_re "hwdswlqwuurodwykenkdrxoyqmuszmdstuwrrbtinwprpxhxra") re.allchar (str.to_re "tpwfeswurayqrqp") (re.* re.allchar) (str.to_re "bwt") (re.* re.allchar) (str.to_re "kusubmtooompwik") (re.* re.allchar) (str.to_re "wqivdvddkuuebsnmeslnztpqkubl") re.allchar (str.to_re "dmh") re.allchar (str.to_re "xysunu") (re.* re.allchar) re.allchar (str.to_re "pe") re.allchar (str.to_re "qztyfb") re.allchar (str.to_re "ccwfwwf") re.allchar (re.* re.allchar) (str.to_re "hmvzdaaituizitgfw") (re.* re.allchar) (str.to_re "c") (re.* re.allchar) re.allchar (str.to_re "ahqedxuapxeywxha") (re.* re.allchar) (str.to_re "avumguoblzdvezzwjxlqs") re.allchar (str.to_re "cwcoktgimwiiovckhvlavdtrjppovhxbugwarv") re.allchar (str.to_re "soaienpnekgeojttampqmtdjahkpfsvb") (re.* re.allchar) (str.to_re "gkrzmdulbkimxyvpwedpv") (re.* re.allchar) (str.to_re "gvxy") (re.* re.allchar) (str.to_re "wxybaomouhjiswagh") (re.* re.allchar) (str.to_re "jysjiomjnbbx") re.allchar (str.to_re "wzzctfhdvs") (re.* re.allchar) (str.to_re "wwczhrhmgphqhbswh") re.allchar (str.to_re "spqitdgahoxrre") (re.* re.allchar) (str.to_re "kmtqczeqsjxbzsvegvxsulfqkox") re.allchar (str.to_re "un") (re.* re.allchar) (str.to_re "crcap") re.allchar (str.to_re "vgnxeeckxfqgvjptkkpounqzudlatazydfybfswfogcrn") re.allchar (str.to_re "g") (re.* re.allchar) (re.* re.allchar) (str.to_re "gsravcciifgmew") re.allchar (str.to_re "tfbdqjhas") re.allchar (str.to_re "f") (re.* re.allchar) (str.to_re "vrcptbyxejsrcizh") (re.* re.allchar) (str.to_re "ps") re.allchar re.allchar (re.* re.allchar) (str.to_re "brfkmb") (re.* re.allchar) (str.to_re "ihfuw") re.allchar (str.to_re "hytxf") (re.* re.allchar) (str.to_re "fczkt") re.allchar (str.to_re "rprhagtwsq") re.allchar (str.to_re "ztwfxeahhizteevbnxyqtczlgdiiaxdfqzpzvoyf") (re.* re.allchar) (str.to_re "uqqvomsm") re.allchar re.allchar (str.to_re "xzdvgtyujedmafvaclvmoyptldpkrutomeacdbpntcb") re.allchar (str.to_re "vfxzpgudojityihukejkxqwaei") re.allchar (str.to_re "qzutw") (re.* re.allchar) (str.to_re "txa") (re.* re.allchar) (str.to_re "tlmybhkdlppszwfkmiwyefqiigsiwamonvzjyqbkmurpccbsvmbzuqv") re.allchar (re.* re.allchar) (str.to_re "znl") (re.* re.allchar) (str.to_re "nylqutmayyprkhbcsbt") re.allchar (str.to_re "xmdbwbirlojpnykeouubqfifwuuaybgdpbbtvcqibycpzehsxnc") re.allchar (str.to_re "loq") re.allchar (str.to_re "i") re.allchar (str.to_re "zlzet") (re.* re.allchar) (str.to_re "lyirt") re.allchar (str.to_re "g") re.allchar (re.* re.allchar) (str.to_re "cznmwcmznw") (re.* re.allchar) (str.to_re "khucrzhjzhoemyneerj") re.allchar (str.to_re "svrpl") re.allchar (str.to_re "jpwwqrgtaaytqlgaownxaqnndcnwgknsyrbcmtleyztqi") re.allchar (str.to_re "gwdpanxyzhcyugb") re.allchar (str.to_re "fmjkiery") (re.* re.allchar) (re.* re.allchar) (str.to_re "r") (re.* re.allchar) (re.* re.allchar) (str.to_re "uddmkwifvyqhpnze") (re.* re.allchar) (str.to_re "ybd") re.allchar re.allchar (str.to_re "ocwueeiw") re.allchar (str.to_re "zniu") (re.* re.allchar) (str.to_re "ynmohtsisabpgpmafwutl") (re.* re.allchar) (str.to_re "hopspkxhbn") re.allchar (str.to_re "qlvuwgnqnwldox") (re.* re.allchar) (str.to_re "zpjsfxnnjxitmbyutsjfxsdw") re.allchar (str.to_re "c") re.allchar (str.to_re "svn") (re.* re.allchar) (str.to_re "howwtntkqiscgtdutxxjqknmlctgrgaemysh") re.allchar (str.to_re "nzljmmgw") re.allchar (str.to_re "xefzeujpsu") (re.* re.allchar) (str.to_re "yreicrhuamdmrsmrvnzidhftiigvegs") (re.* re.allchar) (str.to_re "mzxctfcugvrqzlefjgrmdrmvriwqzbxhmdne") re.allchar (str.to_re "ywwpffoeiiok") re.allchar (str.to_re "ejisqblvhnuizzxq") (re.* re.allchar) (str.to_re "da") re.allchar (str.to_re "qh") (re.* re.allchar) (str.to_re "pruuhuhevqtyltyjpeufambxciattismccdrdeeioysrwxry") re.allchar (str.to_re "giejttjgjebwvzgvwtxvwkkoxdrunfruf") re.allchar (str.to_re "gk") re.allchar (str.to_re "exicfyzovd") re.allchar (str.to_re "znbsweltrdjos") (re.* re.allchar) (str.to_re "thcvicgkusmonqgftjqjmolucymz") (re.* re.allchar) (str.to_re "ckoonwmq") re.allchar (str.to_re "tzkfgljrgectw") re.allchar (str.to_re "ydobbnnfppzua") re.allchar (str.to_re "utxuwtyoxqyxeitjeii") (re.* re.allchar) (str.to_re "keyzgga") (re.* re.allchar) (str.to_re "tqdbcxglkewb") re.allchar (str.to_re "dglibvetuvmydropopillktvibcvydlmqdqigygzwhodwhianrre") (re.* re.allchar) (re.* re.allchar) (re.* re.allchar) (str.to_re "qlfckogcgdszhdef") re.allchar (str.to_re "dmfycfiqyypfojdgvewkvngtipg") (re.* re.allchar) (str.to_re "cxmasqlryu") re.allchar (str.to_re "cibdyvhhonakmtl") (re.* re.allchar) (str.to_re "lxrscw") (re.* re.allchar) (str.to_re "ubemiyxiy") re.allchar (str.to_re "dxvafvmqocervzacmlcdwmf") (re.* re.allchar) (str.to_re "tyhsphegvllupf") re.allchar (str.to_re "teevquitvkyvborfkeusch") re.allchar (str.to_re "faqccqmbpuxxt") (re.* re.allchar) (str.to_re "xzh") (re.* re.allchar) (str.to_re "dpwozmvxdmixumhfawrxadwinohoy") (re.* re.allchar) (str.to_re "cyb") re.allchar (str.to_re "pxcgg") re.allchar (str.to_re "vmptmkiku") re.allchar (str.to_re "rkfbxkroaqqhgdraiswcveyzewvcsbrgmkiljnya") re.allchar (str.to_re "i") (re.* re.allchar) re.allchar (str.to_re "pmmcgwjh") re.allchar (str.to_re "im") re.allchar re.allchar (str.to_re "ehuzmxqkga") (re.* re.allchar) (str.to_re "jslrawodjxvkt") re.allchar (str.to_re "ub") re.allchar (str.to_re "fuxgiqavzjpt") re.allchar (str.to_re "enswqbaegdt") re.allchar (str.to_re "a") (re.* re.allchar) (str.to_re "dmtdmsyhazf") (re.* re.allchar) (str.to_re "rhszidsuhdnqyxezplbikxbewobdrixmcweerxbgge") re.allchar (str.to_re "dclufntkqajaufhpk") (re.* re.allchar) (str.to_re "bymhxbzh") re.allchar (str.to_re "izvc") re.allchar (str.to_re "vsq") re.allchar (str.to_re "bumlf") re.allchar (str.to_re "tuqhg") re.allchar (str.to_re "miagvtwjxdpwskmpzsbziokymihug") (re.* re.allchar) (str.to_re "mfzreruiefgh") re.allchar (str.to_re "wsgwhtwonik") (re.* re.allchar) (str.to_re "wxaurjodapkm") (re.* re.allchar) (str.to_re "arsnhvqhxxiktmkabvqnfhwpgube") re.allchar (str.to_re "wwzqnexpzoszabxdlayxluzycmhwbmeqjtbaoogiuybpeanvfllfowsw") (re.* re.allchar) (str.to_re "tjtpmry") (re.* re.allchar) (str.to_re "yhveoosmtlalpczwxom") re.allchar (str.to_re "uiinpur") re.allchar (str.to_re "fvlmggw") (re.* re.allchar) (str.to_re "zwmrggvcyrzbajbsmowicbaa") re.allchar (str.to_re "gvd") re.allchar (str.to_re "qvygbppjasryh") (re.* re.allchar) re.allchar (str.to_re "dsncytenzi") (re.* re.allchar) (str.to_re "gnnvf") re.allchar (str.to_re "verasjpuvsuxlilbcklw") re.allchar (str.to_re "pgbpvyblayrbhtnirkf") re.allchar (str.to_re "yawx") re.allchar (str.to_re "gxudfi") re.allchar (str.to_re "nldsbnyqmucongwtzidexqvpcbn") re.allchar (str.to_re "nzaqvgffvqsyxapdwhaikdiolpfhzuslksk") (re.* re.allchar) (str.to_re "lwr") re.allchar (str.to_re "bzxndidwkbllyg") (re.* re.allchar) (str.to_re "pvrbouzubjqyfhfkwwufjg") re.allchar (str.to_re "jzfchnuo") (re.* re.allchar) (str.to_re "psnrfxwxgd") (re.* re.allchar) (str.to_re "rihfhrukm") (re.* re.allchar) (str.to_re "mty") (re.* re.allchar) re.allchar (str.to_re "mwsjcstvjxm") re.allchar (str.to_re "mipvjvcpbfhfyavrmlecvrcmgnutnjqsucpzv") (re.* re.allchar) (str.to_re "pjriouafwchsuiwhbvqzsmnduixhyygfdlgsxsgnvooqds") re.allchar (str.to_re "vwklpzaabdbgdssuphqwijokaywjt") (re.* re.allchar) (str.to_re "idrn") (re.* re.allchar) (str.to_re "imkymlfxw") re.allchar re.allchar (str.to_re "kfr") (re.* re.allchar) (str.to_re "iw") re.allchar (str.to_re "tvgvvoyxzcqgli") re.allchar (str.to_re "ycifnqppy") re.allchar (str.to_re "iddjgjeyoqqcfrasuoyyihbxgrzuwibqfcljrcxaa") re.allchar (str.to_re "rsuv") re.allchar re.allchar (str.to_re "j") (re.* re.allchar) (str.to_re "zdyosnbjltffbzu") re.allchar (str.to_re "cafikes") (re.* re.allchar) (str.to_re "ufycxgdvwyj") (re.* re.allchar) (str.to_re "drb") (re.* re.allchar) (str.to_re "hafdwidgtzqgvmkdihemopcrfnhubfjxoo") re.allchar (str.to_re "yavksliuoiodfqnb") (re.* re.allchar) (str.to_re "tmeaishw") (re.* re.allchar) (str.to_re "nm") (re.* re.allchar) (str.to_re "r") (re.* re.allchar) (str.to_re "lajtahvkiqypnhvwrqoy") re.allchar (str.to_re "cendqjtxaunpovuwozicyfdbqyxyplevsfjoehqmvtipdxqptylkczstcpwrs") (re.* re.allchar) (str.to_re "erqgzcowj") (re.* re.allchar) (str.to_re "heg") (re.* re.allchar) (str.to_re "cvhcdahpveypfapihjwvoldzpfbjixtdhchxzpltneshfzaco") re.allchar (str.to_re "vmgrqirsbsjuvltxqkfjmaubvsxgfprmhfvwnrcpwpymtqqxanlcjagpjwephellkklne") (re.* re.allchar) (str.to_re "e") (re.* re.allchar) (str.to_re "npsnlhle") re.allchar (str.to_re "aguvd") (re.* re.allchar) (str.to_re "oet") re.allchar (str.to_re "ldrspgvesbdgzkgvcao") (re.* re.allchar) (re.* re.allchar) (str.to_re "fu") (re.* re.allchar) (str.to_re "vyhzfiy") re.allchar (str.to_re "ahkaguptqkvc") (re.* re.allchar) (str.to_re "qitevimraiggpuxorqajaqm") (re.* re.allchar) (str.to_re "rqhweymbtohpuwtudxuobmmgxlnaglojcdcavnhygwjqecnlnnzyufosemsahmrm") re.allchar (str.to_re "oimuglicefhfkqiq") (re.* re.allchar) (str.to_re "qojrxgtwsqgtp") re.allchar (str.to_re "vfy") re.allchar (str.to_re "jpqrseufvlwjugrd") )   (re.++ (str.to_re "ysguh") (re.* re.allchar) (str.to_re "no") re.allchar (str.to_re "hq") (re.* re.allchar) re.allchar (str.to_re "ppamokgkruxgjdzrjtzgoczfqlghof") re.allchar (str.to_re "fbmgeqmtyul") (re.* re.allchar) (str.to_re "aox") (re.* re.allchar) (str.to_re "gwymkhyqodbxf") re.allchar (str.to_re "zzcgwlxtkhtedlcbkamrkqasrsrbrgzltxitcjhrfecceilolpx") (re.* re.allchar) (str.to_re "lbfjddesdfdeyeccsit") (re.* re.allchar) (str.to_re "ps") (re.* re.allchar) re.allchar (str.to_re "ybwrfjaaiiqxbkgwh") re.allchar (str.to_re "oyetwc") (re.* re.allchar) (str.to_re "nbsknzbtyzjueizcp") re.allchar (str.to_re "q") re.allchar (str.to_re "hyhkphfqqk") (re.* re.allchar) (str.to_re "wysoybsywtsarsdcsm") (re.* re.allchar) (str.to_re "unlyhxoymqlucrb") (re.* re.allchar) (str.to_re "pdgbrmdjxxmzsoaxrnjgyxdb") (re.* re.allchar) (str.to_re "phepcxulxx") re.allchar (str.to_re "nizl") (re.* re.allchar) (str.to_re "wx") re.allchar (str.to_re "tlhol") (re.* re.allchar) re.allchar (str.to_re "a") re.allchar (str.to_re "wrzylb") re.allchar (str.to_re "fhgujebosravqhmtytbewndcnqbqvttlewwvxm") re.allchar (re.* re.allchar) (str.to_re "syqigeqklkpzikmhcubld") re.allchar (str.to_re "nmukucvnkz") (re.* re.allchar) (str.to_re "gzfuqcsnbcpfplbvojdwvnpdmbgyffdwgfehglpnypvpnbcoxksejonuyrc") (re.* re.allchar) (str.to_re "rmjrncvii") re.allchar (str.to_re "omkrnafc") (re.* re.allchar) (str.to_re "my") re.allchar (str.to_re "sfcbzglp") (re.* re.allchar) (re.* re.allchar) (str.to_re "sjj") re.allchar (str.to_re "bvvgpmxbwgwzrvhj") re.allchar (str.to_re "olglqf") re.allchar (str.to_re "utpw") re.allchar (str.to_re "xxrak") re.allchar (str.to_re "jecc") (re.* re.allchar) (str.to_re "vtr") re.allchar (str.to_re "iow") (re.* re.allchar) (str.to_re "fazlnjsthlxwg") (re.* re.allchar) (str.to_re "nfmjxeloaxrehucihcsfrchlyk") (re.* re.allchar) (str.to_re "gsbcznmqm") re.allchar (str.to_re "bdhfvkruwcng") re.allchar (str.to_re "mgthmyeand") re.allchar (str.to_re "wol") re.allchar re.allchar (str.to_re "qm") (re.* re.allchar) (str.to_re "j") re.allchar (str.to_re "ndiowpjcjymeuzqv") re.allchar (str.to_re "smqivnwebepgjseh") re.allchar (str.to_re "wpuwedaxmu") re.allchar (str.to_re "chxesno") re.allchar (str.to_re "eoohl") re.allchar re.allchar (str.to_re "vrvo") re.allchar (str.to_re "nfdtujqzerlxwduwremvcpxsuaulhfjuexvswaiqooizbcee") (re.* re.allchar) (str.to_re "fixjf") re.allchar (str.to_re "mmifuhqfgwjgkforssswchyjhx") re.allchar (str.to_re "egxcpibydid") re.allchar (str.to_re "gu") (re.* re.allchar) (str.to_re "sghnhqpx") re.allchar (str.to_re "vevujshcxby") (re.* re.allchar) (str.to_re "ydudwuzyqsgrqdroneayp") (re.* re.allchar) (str.to_re "tto") re.allchar (re.* re.allchar) (str.to_re "gg") (re.* re.allchar) (str.to_re "v") (re.* re.allchar) (str.to_re "hrrslpqclyuxacewcdueaqsgd") (re.* re.allchar) (str.to_re "pqz") re.allchar re.allchar (str.to_re "vyejebqhfua") (re.* re.allchar) (str.to_re "qipfagvpsxouoy") (re.* re.allchar) (str.to_re "tsqrqulpjvuwpzfswjltpb") re.allchar (str.to_re "okmkpybogoluqjeufqbxlbb") re.allchar (str.to_re "jdaiomspwmmikryybcgbva") (re.* re.allchar) (str.to_re "pxojjtowxj") (re.* re.allchar) (str.to_re "nwctdwg") (re.* re.allchar) (str.to_re "teacettekt") (re.* re.allchar) re.allchar (str.to_re "flvqppdixc") re.allchar (str.to_re "zr") re.allchar (str.to_re "tuirgzrjfl") re.allchar (str.to_re "lkkzmmalgv") (re.* re.allchar) (str.to_re "vxf") (re.* re.allchar) (str.to_re "tcloyepdhqeexwskwo") re.allchar (str.to_re "puleykuotwezne") (re.* re.allchar) (str.to_re "csfa") re.allchar (str.to_re "vvykkvmsrzwz") (re.* re.allchar) (str.to_re "qqglrdjmucuxsrt") (re.* re.allchar) (str.to_re "diffytaan") re.allchar (str.to_re "md") (re.* re.allchar) (re.* re.allchar) (str.to_re "lputdntcrsatksaguunncwdjbclbfupuvnin") (re.* re.allchar) (str.to_re "bcvlihodilbggtykujaa") (re.* re.allchar) (str.to_re "ebgiqnmpkzjxdjsldtitmmuqorfivesklpzxwpb") (re.* re.allchar) (str.to_re "ah") (re.* re.allchar) (str.to_re "ivb") re.allchar (str.to_re "dqchrehwhytzqzc") (re.* re.allchar) (str.to_re "xiw") (re.* re.allchar) (str.to_re "omyw") (re.* re.allchar) (str.to_re "rxssio") re.allchar (str.to_re "cadl") (re.* re.allchar) (str.to_re "wdzkzpsjqbqnkqujhmvpmviaocker") (re.* re.allchar) (str.to_re "qewzdgzdhscd") re.allchar (str.to_re "hmkuvp") (re.* re.allchar) (str.to_re "g") re.allchar (str.to_re "qjp") (re.* re.allchar) (str.to_re "ehbiz") re.allchar (str.to_re "nbojdmlaspawbqrkzjrd") re.allchar (str.to_re "qvz") (re.* re.allchar) (str.to_re "a") re.allchar (str.to_re "bekrcihzvcbgpyjmadmwuolmixrenhbrjjiah") re.allchar (str.to_re "i") re.allchar (str.to_re "xlikqdfahwiacecmoyy") re.allchar (str.to_re "tqhbmdbrsmgffpeixoodulq") (re.* re.allchar) (str.to_re "xvkha") (re.* re.allchar) (str.to_re "mrxnj") re.allchar (re.* re.allchar) (str.to_re "gta") (re.* re.allchar) (str.to_re "ohiokgkwtbjfuxmfqyg") (re.* re.allchar) re.allchar (str.to_re "fhswclereflfuusbuzpjmxskmoyjexdvo") re.allchar (str.to_re "fmktmgeyi") (re.* re.allchar) re.allchar (str.to_re "ggqocbpbf") (re.* re.allchar) (str.to_re "srrsr") (re.* re.allchar) (str.to_re "tnrfvkymjvvdclx") re.allchar (str.to_re "tdhvaswtw") (re.* re.allchar) (str.to_re "ldnpnjdwkhg") re.allchar (str.to_re "rhef") (re.* re.allchar) (str.to_re "ymlup") re.allchar (str.to_re "ngwsuzxssyvimntlu") (re.* re.allchar) (str.to_re "iq") re.allchar (re.* re.allchar) (re.* re.allchar) (str.to_re "mxyfnjvrwftk") (re.* re.allchar) (str.to_re "xnkclijonrhtebgo") (re.* re.allchar) (str.to_re "zejgrvvn") re.allchar (str.to_re "vdik") (re.* re.allchar) (str.to_re "gjiaslhhixkyhbvlaguogbsxpedbbvps") re.allchar (str.to_re "hhhdwgbvplt") (re.* re.allchar) (str.to_re "xfyk") re.allchar (str.to_re "vff") re.allchar re.allchar (str.to_re "dv") (re.* re.allchar) (str.to_re "mgermlcrm") re.allchar (str.to_re "cqse") (re.* re.allchar) (str.to_re "gymsppixifakputybv") (re.* re.allchar) (str.to_re "mmgsq") re.allchar (str.to_re "ekxxhwedh") (re.* re.allchar) (str.to_re "ugrdn") (re.* re.allchar) (str.to_re "c") re.allchar re.allchar (str.to_re "kyukiveivs") (re.* re.allchar) (str.to_re "ic") re.allchar (str.to_re "p") re.allchar (str.to_re "genmelowzivplqkrrjruhingapmoms") (re.* re.allchar) (str.to_re "k") (re.* re.allchar) (str.to_re "wfmnpjakgt") re.allchar (str.to_re "vnt") re.allchar (str.to_re "jgqj") re.allchar (str.to_re "ovcpw") (re.* re.allchar) (str.to_re "tmxvzunj") re.allchar (str.to_re "yrp") (re.* re.allchar) (str.to_re "pdfkekqqyx") (re.* re.allchar) (str.to_re "oyf") (re.* re.allchar) (str.to_re "mimiedihynzbwwbiiihcquhwgsczlz") (re.* re.allchar) (str.to_re "hyq") (re.* re.allchar) (str.to_re "wbly") re.allchar (str.to_re "cvzjv") re.allchar (str.to_re "qdwuuaznluxzft") (re.* re.allchar) (str.to_re "dmijqrouyrqgukuzwihlkzburjgwd") re.allchar (str.to_re "prxqbprtjpxezhencxkvdgw") (re.* re.allchar) (str.to_re "hdmwqwbpktdtupdptsnnpyvknzldsdub") re.allchar (str.to_re "ptl") (re.* re.allchar) (str.to_re "xyzulqwdhigdutpwfsunapsleupv") re.allchar (str.to_re "aplcwzqqmuprmw") re.allchar (str.to_re "kfmwnsrfzlbyqikcljfvcvuuecvkrwanijfaicjojykx") (re.* re.allchar) (str.to_re "pnlgpha") (re.* re.allchar) (re.* re.allchar) (str.to_re "usjpynznis") re.allchar (str.to_re "hadoosrudvi") re.allchar (str.to_re "nhyoqkyrdxdooactnuug") (re.* re.allchar) (str.to_re "rsxlaxjgmzpqaljpyyiwjpghctljndlznttvpkvrrfce") (re.* re.allchar) (str.to_re "xkdlalgrpbqmngewjti") (re.* re.allchar) (str.to_re "otj") re.allchar (str.to_re "lwru") (re.* re.allchar) (str.to_re "kaljnipj") re.allchar (str.to_re "zrtxv") re.allchar (str.to_re "zddmbtols") re.allchar (str.to_re "axtc") (re.* re.allchar) (str.to_re "azwupzditj") re.allchar (str.to_re "glxwoexflqejxnlfozujzvhikkjhmyh") (re.* re.allchar) (str.to_re "psdgijk") (re.* re.allchar) (str.to_re "lfrtr") re.allchar (str.to_re "cm") (re.* re.allchar) (str.to_re "wqsnzg") (re.* re.allchar) (str.to_re "erzbbsyduqhd") re.allchar (str.to_re "ygsyjkvxena") re.allchar (str.to_re "gvbff") (re.* re.allchar) (str.to_re "r") (re.* re.allchar) (str.to_re "fkkthyymrkhhyzqrognbzdlkmozd") re.allchar (str.to_re "wrzzhbsf") re.allchar (str.to_re "rkaremngygijdclb") (re.* re.allchar) (str.to_re "vqwhwrekzlkmfnnnjyrk") (re.* re.allchar) (str.to_re "kqqizah") (re.* re.allchar) (str.to_re "rdwdvolimqrzcxidmh") re.allchar (str.to_re "fduhhrrnglg") re.allchar (str.to_re "tqdqknogzcowwqndlkqmo") (re.* re.allchar) (str.to_re "hzfgejobkjdc") re.allchar (str.to_re "notnczyycdbhadfepeaoopli") re.allchar (str.to_re "qzedeunheqbwapilvgpxnpcehjdjbcelywztbcdzkuxnnswmps") (re.* re.allchar) (str.to_re "jujnmoiaveroedfsswaotk") re.allchar (str.to_re "cvdczwjjrxxcpijmhohf") re.allchar (str.to_re "ndbdkatwb") re.allchar (str.to_re "pxvowgmdbhqjdvfnocov") re.allchar (str.to_re "g") (re.* re.allchar) (str.to_re "ykq") (re.* re.allchar) (str.to_re "vzpjzysebbpowmmqeooerlxfqebcapbwpxxqvavhraswq") (re.* re.allchar) (str.to_re "gvtdu") re.allchar (str.to_re "nxjrkewdxigmussmygwwalefjunninyochnlmriye") re.allchar (re.* re.allchar) (str.to_re "wpwlovti") re.allchar (str.to_re "zywliwczmfhwiicggvpyhzltxpguelzhqhs") (re.* re.allchar) (str.to_re "yrgjnmnkxmdviyhrbttrynlmfobfuvxhbgepuzevhd") (re.* re.allchar) (str.to_re "bmw") (re.* re.allchar) (str.to_re "mvpxxrudxcovlurwwkrh") (re.* re.allchar) (str.to_re "jnfizqkctzsak") re.allchar (str.to_re "ewn") re.allchar (str.to_re "hutvnfzuebedy") (re.* re.allchar) (str.to_re "slshojltvuizwzapkhqgtj") re.allchar (str.to_re "jdwyfgvrdkooyhqlruepvlyktzprbnasdabalev") (re.* re.allchar) (str.to_re "qq") re.allchar (str.to_re "vgkoa") (re.* re.allchar) (str.to_re "o") re.allchar (str.to_re "ogkgo") re.allchar (str.to_re "ojgjec") (re.* re.allchar) (str.to_re "cinxloowzffeodnyekjxplmzhbpsqrdqnhlx") re.allchar (str.to_re "meu") re.allchar (str.to_re "lbsiwqf") (re.* re.allchar) (str.to_re "hxapfcykspldityjnr") (re.* re.allchar) (str.to_re "whemqjqgywq") re.allchar (str.to_re "tsfnlbtgwxxt") re.allchar (str.to_re "nyjnnw") re.allchar (str.to_re "wd") re.allchar (str.to_re "rmwxpqhihuvlbwyli") (re.* re.allchar) (str.to_re "nym") re.allchar (str.to_re "grnxgkzwzrprqxnojyiiaxwz") re.allchar (str.to_re "kbnpeqjbuqr") (re.* re.allchar) (str.to_re "pjv") re.allchar (str.to_re "buezxbvwkonejausdnpohvzcvbxfgbegbhfhainvrjullm") re.allchar (str.to_re "jvkxjazrgdbtisaps") (re.* re.allchar) (str.to_re "faejkgitsfnjbknkzwhfsplu") re.allchar (str.to_re "dmcnhwxburtbl") re.allchar (str.to_re "yevtqldmrivyunldzjtksshtcjriphl") (re.* re.allchar) (str.to_re "pwakmisvigrrwl") re.allchar (str.to_re "cmnwrsbyf") re.allchar (str.to_re "uckygmgpwjlpniveekezxdfmiwjp") (re.* re.allchar) (str.to_re "vdkauaz") (re.* re.allchar) re.allchar (str.to_re "n") re.allchar (str.to_re "q") re.allchar (str.to_re "lnjfcctinc") re.allchar (str.to_re "zql") re.allchar (str.to_re "r") (re.* re.allchar) (str.to_re "izvyfdz") (re.* re.allchar) (str.to_re "jazd") re.allchar (str.to_re "inzykxeaopctwshhkxrqvcl") (re.* re.allchar) (str.to_re "kduqaxkglowwfziijlmndvnoiibhyvkmytxeslvsgcwi") re.allchar (str.to_re "ifsnj") (re.* re.allchar) (str.to_re "gwokajualvjogpdlbrretdn") (re.* re.allchar) (str.to_re "sifbtetvrpopmcgdxhvxh") re.allchar (str.to_re "gzjqjtc") re.allchar (str.to_re "acpsjwujckswlyrgzcpcbsqxmega") (re.* re.allchar) (str.to_re "pfrrnelhkrnziseyojlptischqhimdha") (re.* re.allchar) (str.to_re "mesjgsrqkvaeldkeernbecerlamdgcl") re.allchar (str.to_re "cmulgibskutsninwwuflbkleaukda") re.allchar (str.to_re "ysbn") re.allchar (str.to_re "pexmwdpx") (re.* re.allchar) (str.to_re "wswmrwzzskdqefdpjww") (re.* re.allchar) (str.to_re "o") re.allchar (str.to_re "ihziqnjpxvoupumkbt") re.allchar (str.to_re "bgudqmlkkvi") re.allchar (str.to_re "gtonxfdv") re.allchar (str.to_re "zkfe") (re.* re.allchar) (str.to_re "vhlsx") re.allchar (str.to_re "jgffztq") re.allchar (str.to_re "dssnzmybozpam") (re.* re.allchar) (str.to_re "ybbjispxxyqvnlxaq") re.allchar (str.to_re "qbqhpbmefuoknpyvwpl") (re.* re.allchar) (str.to_re "t") (re.* re.allchar) (re.* re.allchar) (str.to_re "gyfarwpcuwjgzcadrmr") (re.* re.allchar) (str.to_re "dwsw") re.allchar (str.to_re "laxnfrtmstuqjtlwtjoluyvqiwpyyz") (re.* re.allchar) (str.to_re "fwqxywny") re.allchar (re.* re.allchar) (str.to_re "t") (re.* re.allchar) (str.to_re "kp") re.allchar re.allchar (str.to_re "e") )  )))
(check-sat)
(exit)
